27908
1 1 1 0 1 0 1 1 1 1 1 0 1 0 0 1 0 0 1 1 1 0 0 1 1 1 0 1 1 0 
18 19 2 27 2 12 15 27 18 28 4 28 10 1 28 18 1 20 27 0 18 24 23 24 10 18 27 19 4 2 19 19 4 24 27 6 20 8 24 15 18 9 6 4 8 19 8 2 19 20 24 24 24 15 8 6 25 9 18 7 4 0 7 8 20 25 23 19 28 25 18 12 19 9 23 23 20 23 8 24 10 0 9 25 4 10 6 2 27 7 28 6 25 25 2 1 28 6 0 28 28 15 25 18 4 0 4 24 27 1 19 4 27 12 12 8 28 7 0 8 9 25 28 19 9 15 2 12 19 0 28 24 25 20 23 9 1 8 28 10 12 27 12 25 25 2 24 15 27 25 24 0 23 0 8 28 2 15 8 1 1 27 10 24 23 27 23 4 1 15 1 20 19 10 4 2 0 10 4 10 2 15 2 6 12 8 28 23 0 15 2 15 6 4 7 12 7 15 10 6 

Total Run Time: 592974 ms.
